logging:
Cal Parameter: OK
initial master model!!
initial sub model!
the ToD used now : 383.0
big Pi is 387.0
CPXPARAM_TimeLimit                               300
Tried aggregator 2 times.
MIP Presolve eliminated 134102 rows and 130071 columns.
MIP Presolve modified 123804 coefficients.
Aggregator did 4 substitutions.
Reduced MIP has 9916 rows, 120688 columns, and 1217142 nonzeros.
Reduced MIP has 120688 binaries, 0 generals, 0 SOSs, and 0 indicators.
Presolve time = 3.39 sec. (2988.60 ticks)
Tried aggregator 1 time.
Reduced MIP has 9916 rows, 120688 columns, and 1217142 nonzeros.
Reduced MIP has 120688 binaries, 0 generals, 0 SOSs, and 0 indicators.
Presolve time = 1.30 sec. (727.02 ticks)
Probing fixed 7 vars, tightened 0 bounds.
Probing time = 1.20 sec. (479.77 ticks)
Clique table members: 604663.
MIP emphasis: balance optimality and feasibility.
MIP search method: dynamic search.
Parallel mode: deterministic, using up to 4 threads.
Root relaxation solution time = 17.92 sec. (17711.84 ticks)

        Nodes                                         Cuts/
   Node  Left     Objective  IInf  Best Integer    Best Bound    ItCnt     Gap

*     0+    0                            2.0000   148393.0000              --- 
*     0+    0                            3.0000   148393.0000              --- 
      0     0       48.0531   133        3.0000       48.0531    11283     --- 
*     0+    0                            9.0000       48.0531           433.92%
      0     0       47.9938   137        9.0000      Cuts: 10    12819  433.26%
      0     0       47.9829   148        9.0000       Cuts: 3    12897  433.14%
      0     0       47.9806   148        9.0000     Covers: 2    12921  433.12%
      0     0       47.9806   148        9.0000   Flowcuts: 1    12922  433.12%
      0     0       47.9806   148        9.0000   Flowcuts: 1    12923  433.12%
Heuristic still looking.
Heuristic still looking.
      0     2       47.9806   148        9.0000       47.9806    12923  433.12%
Elapsed time = 85.19 sec. (72547.63 ticks, tree = 0.02 MB, solutions = 3)
      1     3       47.8039   105        9.0000       47.9790    13546  433.10%
      2     4       47.6313    99        9.0000       47.9790    14060  433.10%
      3     3       47.7006   126        9.0000       47.9790    14211  433.10%
      4     3        cutoff              9.0000       47.9790    15466  433.10%
      5     2        cutoff              9.0000       47.9790    17513  433.10%
      6     5       47.5272   107        9.0000       47.9790    15015  433.10%
      7     5       47.2697    71        9.0000       47.7006    22708  430.01%
      8     5       47.4389    85        9.0000       47.7006    22328  430.01%
      9     6       47.2323    85        9.0000       47.7006    22848  430.01%
     11     7       47.3496   115        9.0000       47.7006    23914  430.01%
Elapsed time = 111.56 sec. (90566.49 ticks, tree = 0.12 MB, solutions = 3)
     12     6       45.7521   132        9.0000       47.7006    19777  430.01%
     14    10       46.3808    83        9.0000       47.7006    30436  430.01%
     16     8       47.0439   132        9.0000       47.7006    26803  430.01%
     19     9       45.5787   132        9.0000       47.7006    30683  430.01%
     20    13       45.5476    88        9.0000       47.7006    33081  430.01%
     21    12       46.2431   101        9.0000       47.7006    32620  430.01%
     26    13        cutoff              9.0000       47.7006    35533  430.01%
     38    16       42.7321    92        9.0000       47.7006    38878  430.01%
     59    17       44.6824    99        9.0000       47.7006    38622  430.01%
     81    23       41.5323    92        9.0000       47.7006    46112  430.01%
Elapsed time = 128.34 sec. (104579.31 ticks, tree = 1.68 MB, solutions = 3)
    101    22        cutoff              9.0000       47.7006    44538  430.01%
    122    23        cutoff              9.0000       47.7006    47272  430.01%
    145    39       39.5301    83        9.0000       47.7006    57236  430.01%
    176    40       44.4167    88        9.0000       47.7006    67663  430.01%
*   196+   39                           13.0000       47.7006           266.93%
    208    43       40.1289    96       13.0000       47.7006    70749  266.93%
    244    60        cutoff             13.0000       47.7006    90195  266.93%
    287    66        cutoff             13.0000       47.7006    86986  266.93%
    320    83        cutoff             13.0000       47.7006   105734  266.93%
    367    87        cutoff             13.0000       47.7006   109973  266.93%
    406    89       38.7030    84       13.0000       47.7006   120002  266.93%
Elapsed time = 150.11 sec. (114408.71 ticks, tree = 6.66 MB, solutions = 4)
    451    91       38.1569    88       13.0000       47.7006   124153  266.93%
    495    94       37.8337   117       13.0000       47.7006   128076  266.93%
    543   104        cutoff             13.0000       47.7006   138825  266.93%
    588   127        cutoff             13.0000       47.7006   162376  266.93%
    638   123        cutoff             13.0000       47.7006   156074  266.93%
    682   152       35.0183   159       13.0000       47.7006   192626  266.93%
    724   141        cutoff             13.0000       47.7006   183708  266.93%
    777   177        cutoff             13.0000       47.7006   210313  266.93%
    816   203       34.3951   165       13.0000       47.7006   228217  266.93%
    858   214       35.8016   120       13.0000       47.7006   245012  266.93%
Elapsed time = 170.59 sec. (124171.46 ticks, tree = 16.67 MB, solutions = 4)
    903   215        cutoff             13.0000       47.7006   236142  266.93%
    951   201        cutoff             13.0000       47.7006   230469  266.93%
    976   241        cutoff             13.0000       47.7006   262932  266.93%
    982   258       34.4619   114       13.0000       47.7006   277723  266.93%
    989   262       30.6572    91       13.0000       47.7006   277827  266.93%
    997   244       43.2798   122       13.0000       47.7006   267458  266.93%
   1023   283       34.5624   161       13.0000       47.7006   289831  266.93%
   1070   292       33.9696   142       13.0000       47.7006   293999  266.93%
   1110   304       34.3621   165       13.0000       47.7006   301094  266.93%
   1163   317        cutoff             13.0000       47.7006   309953  266.93%
Elapsed time = 193.81 sec. (134120.89 ticks, tree = 28.68 MB, solutions = 4)
   1211   329       33.6946   168       13.0000       47.7006   319957  266.93%
   1256   331        cutoff             13.0000       47.7006   323669  266.93%
   1295   349       34.1306   161       13.0000       47.7006   334967  266.93%
   1328   368       33.9005   162       13.0000       47.7006   352048  266.93%
   1375   381       33.2808   147       13.0000       47.7006   363290  266.93%
   1437   387        cutoff             13.0000       47.7006   366507  266.93%
   1496   428       32.8413   197       13.0000       47.7006   394523  266.93%
   1548   434       32.7398   167       13.0000       47.7006   398127  266.93%
   1601   415        cutoff             13.0000       47.7006   394025  266.93%
   1653   455        cutoff             13.0000       47.7006   415616  266.93%
Elapsed time = 215.73 sec. (143902.07 ticks, tree = 45.32 MB, solutions = 4)
   1700   470       32.5647   167       13.0000       47.7006   435367  266.93%
   1743   483       29.5361   133       13.0000       47.7006   448337  266.93%
   1790   511        cutoff             13.0000       47.7006   466696  266.93%
   1829   518        cutoff             13.0000       47.7006   476555  266.93%
   1880   523       32.3621   172       13.0000       47.7006   474033  266.93%
   1917   526        cutoff             13.0000       47.7006   480082  266.93%
   1969   545       32.2166   170       13.0000       47.7006   490429  266.93%
   2016   567        cutoff             13.0000       47.7006   505604  266.93%
   2066   582       32.0979   194       13.0000       47.7006   518303  266.93%
   2112   603        cutoff             13.0000       47.7006   533020  266.93%
Elapsed time = 238.00 sec. (153649.37 ticks, tree = 63.02 MB, solutions = 4)
   2162   593        cutoff             13.0000       47.7006   526729  266.93%
   2209   644       32.0905   193       13.0000       47.7006   561798  266.93%
   2256   655        cutoff             13.0000       47.7006   576370  266.93%
   2309   659        cutoff             13.0000       47.7006   569388  266.93%
   2358   664       28.9056   103       13.0000       47.7006   583911  266.93%
   2410   670        cutoff             13.0000       47.7006   593735  266.93%
   2464   677       31.7102   192       13.0000       47.7006   597564  266.93%
   2509   713        cutoff             13.0000       47.7006   624881  266.93%
   2560   743        cutoff             13.0000       47.7006   640780  266.93%
   2612   727       31.5480   192       13.0000       47.7006   632760  266.93%
Elapsed time = 259.45 sec. (163412.73 ticks, tree = 78.37 MB, solutions = 4)
   2655   768       31.5295   193       13.0000       47.7006   661668  266.93%
   2696   773        cutoff             13.0000       47.7006   666000  266.93%
   2743   808       28.5700   136       13.0000       47.7006   685203  266.93%
   2783   827        cutoff             13.0000       47.7006   704162  266.93%
   2858   846        cutoff             13.0000       47.7006   716301  266.93%
   2936   826       31.3049   184       13.0000       47.7006   703146  266.93%
   2972   881       31.2975   196       13.0000       47.7006   737662  266.93%
   3020   884       31.2288   225       13.0000       47.7006   741498  266.93%
   3065   875        cutoff             13.0000       47.7006   736024  266.93%
   3101   941       31.1947   220       13.0000       47.5695   768313  265.92%
Elapsed time = 279.25 sec. (173052.02 ticks, tree = 104.18 MB, solutions = 4)
   3156   936       31.1080   180       13.0000       47.5695   764851  265.92%
   3203   964       28.1964   151       13.0000       47.5695   783356  265.92%
   3252   975       31.0155   204       13.0000       47.5695   791571  265.92%
   3297   973        cutoff             13.0000       47.5695   790716  265.92%
   3342   982        cutoff             13.0000       47.5695   799974  265.92%
   3391  1005        cutoff             13.0000       47.5695   813569  265.92%
   3437  1043       30.8572   226       13.0000       47.5695   838280  265.92%
   3484  1028       30.8803   201       13.0000       47.5695   831255  265.92%
   3539  1053       30.7289   254       13.0000       47.5695   845177  265.92%

Cover cuts applied:  4
Implied bound cuts applied:  4
Flow cuts applied:  2
Mixed integer rounding cuts applied:  2
Zero-half cuts applied:  3

Root node processing (before b&c):
  Real time             =   83.73 sec. (71378.02 ticks)
Parallel b&c, 4 threads:
  Real time             =  216.52 sec. (112055.70 ticks)
  Sync time (average)   =   25.45 sec.
  Wait time (average)   =    0.00 sec.
                          ------------
Total (root+branch&cut) =  300.25 sec. (183433.72 ticks)
lastScore is 13.0
x 135,145,0  =  1
x 145,152,0  =  1
y 152,1180,0  =  1
x 197,204,1  =  1
x 204,211,1  =  1
f 211,1  =  1
x 1180,1187,1  =  1
x 1187,197,1  =  1
x 11,60,0  =  1
f 60,0  =  1
x 145,152,0  =  1
y 152,1180,0  =  1
x 197,204,1  =  1
f 204,1  =  1
x 1180,1187,1  =  1
x 1187,197,1  =  1
x 196,203,0  =  1
f 203,0  =  1
the ToD used now : 383.0
big Pi is 387.0
CPXPARAM_TimeLimit                               300
4 of 4 MIP starts provided solutions.
MIP start 'm1' defined initial solution with objective 9.0000.
Tried aggregator 2 times.
MIP Presolve eliminated 134102 rows and 130071 columns.
MIP Presolve modified 123804 coefficients.
Aggregator did 4 substitutions.
Reduced MIP has 9916 rows, 120688 columns, and 1217142 nonzeros.
Reduced MIP has 120688 binaries, 0 generals, 0 SOSs, and 0 indicators.
Presolve time = 3.59 sec. (2988.59 ticks)
Tried aggregator 1 time.
Reduced MIP has 9916 rows, 120688 columns, and 1217142 nonzeros.
Reduced MIP has 120688 binaries, 0 generals, 0 SOSs, and 0 indicators.
Presolve time = 1.31 sec. (727.04 ticks)
Probing fixed 7 vars, tightened 0 bounds.
Probing time = 1.11 sec. (479.77 ticks)
Clique table members: 604663.
MIP emphasis: balance optimality and feasibility.
MIP search method: dynamic search.
Parallel mode: deterministic, using up to 4 threads.
Root relaxation solution time = 13.94 sec. (13344.55 ticks)

        Nodes                                         Cuts/
   Node  Left     Objective  IInf  Best Integer    Best Bound    ItCnt     Gap

*     0+    0                            9.0000   148727.0000              --- 
      0     0       46.8485   115        9.0000       46.8485    10078  420.54%
      0     0       46.7829   128        9.0000       Cuts: 3    11275  419.81%
      0     0       46.7702   136        9.0000       Cuts: 3    11544  419.67%
      0     0       46.7649   143        9.0000     Covers: 1    11643  419.61%
      0     0       46.7628   140        9.0000     Covers: 1    11828  419.59%
      0     0       46.7614   143        9.0000     Covers: 1    11860  419.57%
Heuristic still looking.
*     0+    0                           12.0000       46.7614           289.68%
      0     2       46.7614   143       12.0000       46.7614    11860  289.68%
Elapsed time = 69.74 sec. (57569.36 ticks, tree = 0.02 MB, solutions = 5)
      1     3       46.5380   138       12.0000       46.7612    12930  289.68%
      2     1        cutoff             12.0000       46.7608    17321  289.67%
      3     4       44.3411    93       12.0000       46.7608    15104  289.67%
      4     4       46.0247   159       12.0000       46.7608    14831  289.67%
      5     4       44.2179    97       12.0000       46.5363    21582  287.80%
      6     2        cutoff             12.0000       46.5363    25103  287.80%
      7     5       45.9219   154       12.0000       46.0246    22922  283.54%
      9     6       44.1017    98       12.0000       46.0246    23976  283.54%
     10     8       43.8118   102       12.0000       45.9208    31641  282.67%
     12     6       45.4444   142       12.0000       45.9208    29264  282.67%
Elapsed time = 108.81 sec. (84880.17 ticks, tree = 0.12 MB, solutions = 5)
     14    10       43.7281    90       12.0000       45.9208    32486  282.67%
     15    13       43.5931   100       12.0000       45.9208    35428  282.67%
     17     4        cutoff             12.0000       45.9208    34212  282.67%
     18    12    infeasible             12.0000       45.9208    39082  282.67%
     20    10       45.1422   161       12.0000       45.9208    34344  282.67%
     23    13       44.9545   131       12.0000       45.4581    47067  278.82%
     25    13        cutoff             12.0000       45.4581    52525  278.82%
     26    12        cutoff             12.0000       45.4581    53740  278.82%
     27    12        cutoff             12.0000       45.4581    49042  278.82%
     28    14       42.8133    90       12.0000       45.4581    52707  278.82%
Elapsed time = 144.78 sec. (108746.95 ticks, tree = 1.71 MB, solutions = 5)
     29    10    infeasible             12.0000       45.4581    62720  278.82%
     32    13       42.5099    93       12.0000       45.4581    63009  278.82%
     33    14       42.4052    89       12.0000       45.4581    63842  278.82%
     34    15       42.2722    92       12.0000       45.4581    68848  278.82%
     42    17        cutoff             12.0000       45.4581    71048  278.82%
     44    18       42.2132    82       12.0000       45.4581    71487  278.82%
